Cost: 1645
0-5-1-2-45-53-44-43-42-32-33-34-35-41-38-36-37-39-40-46-49-48-51-50-54-55-0
0-3-8-7-9-13-17-18-21-22-23-19-15-16-24-29-30-28-25-27-11-10-57-56-0
Cost: 1645
0-3-4-8-7-9-13-18-21-22-23-19-15-16-17-28-29-30-24-25-27-11-10-56-0
0-1-2-44-45-53-43-42-32-33-34-35-41-38-36-37-39-40-68-46-49-48-51-50-54-55-0
Cost: 1645
0-3-5-1-2-44-45-53-43-42-32-33-35-34-41-38-36-37-39-40-46-49-48-51-50-54-55-0
0-8-7-13-18-21-22-23-19-15-16-17-28-29-30-24-25-27-9-11-10-61-57-0
Cost: 1649
0-3-4-25-27-9-11-10-8-7-13-18-21-22-23-19-15-16-17-28-24-29-31-1-2-0
0-70-44-45-53-43-42-32-33-35-34-41-38-36-37-39-40-46-62-49-48-51-50-54-55-0
Cost: 1649
0-4-25-27-11-10-59-8-7-9-13-18-21-22-23-19-15-16-17-28-24-29-31-1-2-0
0-3-65-44-45-53-43-42-32-33-34-35-41-37-38-36-39-40-46-49-48-51-50-54-55-0
Cost: 1649
0-45-53-44-43-42-32-33-35-34-41-38-36-37-39-40-68-46-62-49-48-51-50-54-55-0
0-3-4-25-27-11-10-8-7-9-13-17-18-21-22-23-19-15-16-28-24-29-31-1-2-0
Cost: 1645
0-3-5-1-2-45-53-44-43-42-32-33-35-34-41-37-38-36-39-40-46-49-48-51-50-54-55-0
0-8-7-13-18-21-22-23-19-15-16-17-28-29-30-24-25-27-9-11-10-61-57-0
Cost: 1649
0-3-4-70-45-53-44-43-42-32-33-35-34-41-38-36-37-39-40-46-49-48-51-50-54-55-0
0-25-27-11-10-59-8-7-9-13-18-21-22-23-19-15-16-17-28-24-29-31-1-2-0
Cost: 1645
0-3-8-7-13-17-18-21-22-23-19-15-16-28-29-30-24-25-27-9-11-10-56-0
0-5-1-2-44-45-53-43-42-32-33-34-35-41-38-36-37-39-40-68-46-49-48-51-50-54-55-0
Cost: 1649
0-3-45-53-44-43-42-32-33-34-35-41-38-36-37-39-40-46-49-48-51-50-54-55-56-0
0-5-25-27-11-10-8-7-9-13-17-18-21-22-23-19-15-16-28-24-29-31-65-1-2-0
Cost: 1645
0-4-8-7-9-13-18-21-22-23-19-15-16-17-64-24-29-30-28-25-27-11-10-56-0
0-3-1-2-45-53-44-43-42-32-33-34-35-41-38-36-37-39-40-46-49-48-51-50-54-55-0
Cost: 1649
0-3-70-44-45-53-43-42-32-33-35-34-41-38-36-37-39-40-46-49-48-51-50-54-55-0
0-4-25-27-11-10-8-7-9-13-18-21-22-23-19-15-16-17-28-24-29-31-65-1-2-0
Cost: 1645
0-1-2-45-53-44-43-42-32-33-34-35-41-38-36-37-39-40-46-49-48-51-50-54-55-0
0-3-4-8-7-9-13-18-21-22-23-19-15-16-17-24-29-30-28-25-27-11-10-61-57-0
Cost: 1649
0-3-4-25-27-11-10-8-7-9-13-17-18-21-22-23-19-15-16-28-24-29-31-1-2-0
0-65-45-53-44-43-42-32-33-35-34-41-38-36-37-39-40-46-62-49-48-51-50-54-55-0
Cost: 1645
0-4-8-7-9-13-18-21-22-23-19-15-16-17-64-24-29-30-28-25-27-11-10-56-0
0-3-1-2-45-53-44-43-42-32-33-34-35-41-38-36-37-39-40-46-49-48-51-50-54-55-0
Cost: 1645
0-4-8-7-9-13-18-21-22-23-19-15-16-17-64-24-29-30-28-25-27-11-10-56-0
0-3-1-2-45-53-44-43-42-32-33-34-35-41-38-36-37-39-40-46-49-48-51-50-54-55-0
Cost: 1645
0-4-8-7-9-13-18-21-22-23-19-15-16-17-64-24-29-30-28-25-27-11-10-56-0
0-3-1-2-45-53-44-43-42-32-33-34-35-41-38-36-37-39-40-46-49-48-51-50-54-55-0
Cost: 1645
0-4-8-7-9-13-18-21-22-23-19-15-16-17-64-24-29-30-28-25-27-11-10-56-0
0-3-1-2-45-53-44-43-42-32-33-34-35-41-38-36-37-39-40-46-49-48-51-50-54-55-0
Cost: 1645
0-4-8-7-9-13-18-21-22-23-19-15-16-17-64-24-29-30-28-25-27-11-10-56-0
0-3-1-2-45-53-44-43-42-32-33-34-35-41-38-36-37-39-40-46-49-48-51-50-54-55-0
Cost: 1645
0-5-1-2-44-45-53-43-42-32-33-35-34-41-38-36-37-39-40-46-49-48-51-50-54-55-0
0-3-8-7-13-18-21-22-23-19-15-16-17-64-28-29-30-24-25-27-9-11-10-56-0
Cost: 1645
0-1-2-45-53-44-43-42-32-33-34-35-41-38-36-37-39-40-68-46-62-49-48-51-50-54-55-0
0-3-4-8-7-13-18-21-22-23-19-15-16-17-28-29-30-24-25-27-9-11-10-0
Cost: 1645
0-1-2-45-53-44-43-42-32-33-34-35-41-38-36-37-39-40-68-46-62-49-48-51-50-54-55-0
0-3-4-8-7-13-18-21-22-23-19-15-16-17-28-29-30-24-25-27-9-11-10-0
Cost: 1645
0-8-7-9-13-18-21-22-23-19-15-16-17-28-29-30-24-25-27-11-10-57-0
0-3-4-1-2-44-45-53-43-42-32-33-34-35-41-38-36-37-39-40-68-46-49-48-51-50-54-55-0
Cost: 1649
0-45-53-44-43-42-32-33-34-35-41-38-36-37-39-40-68-46-49-48-51-50-54-55-56-0
0-3-5-25-27-11-10-8-7-9-13-18-21-22-23-19-15-16-17-28-24-29-30-1-2-0
Cost: 1645
0-3-4-8-7-9-13-17-18-21-22-23-19-15-16-64-28-29-30-24-25-27-11-10-56-0
0-1-2-44-45-53-43-42-32-33-34-35-41-38-36-37-39-40-46-49-48-51-50-54-55-0
Cost: 1649
0-45-53-44-43-42-32-33-34-35-41-38-36-37-39-40-68-46-49-48-51-50-54-55-56-0
0-3-5-25-27-11-10-8-7-9-13-18-21-22-23-19-15-16-17-28-24-29-30-1-2-0
Cost: 1645
0-5-1-2-44-45-53-43-42-32-33-35-34-41-38-36-37-39-40-46-49-48-51-50-54-55-0
0-3-8-7-13-18-21-22-23-19-15-16-17-64-28-29-30-24-25-27-9-11-10-56-0
Cost: 1645
0-1-2-45-53-44-43-42-32-33-34-35-41-38-36-37-39-40-68-46-62-49-48-51-50-54-55-0
0-3-4-8-7-13-18-21-22-23-19-15-16-17-28-29-30-24-25-27-9-11-10-0
Cost: 1645
0-1-2-45-53-44-43-42-32-33-34-35-41-38-36-37-39-40-68-46-62-49-48-51-50-54-55-0
0-3-4-8-7-13-18-21-22-23-19-15-16-17-28-29-30-24-25-27-9-11-10-0
Cost: 1645
0-3-1-2-44-45-53-43-42-32-33-34-35-41-38-36-37-39-40-46-62-49-48-51-50-54-55-0
0-4-8-7-9-13-17-18-21-22-23-19-15-16-28-29-30-24-25-27-11-10-56-0
Cost: 1649
0-65-44-45-53-43-42-32-33-34-35-41-38-36-37-39-40-46-62-49-48-51-50-54-55-0
0-3-5-25-27-11-10-8-7-9-13-17-18-21-22-23-19-15-16-28-24-29-30-1-2-0
Cost: 1645
0-3-8-7-13-17-18-21-22-23-19-15-16-28-29-30-24-25-27-9-11-10-57-0
0-4-1-2-44-45-53-43-42-32-33-34-35-69-41-37-38-36-39-40-46-49-48-51-50-54-55-0
Cost: 1645
0-3-8-7-13-17-18-21-22-23-19-15-16-64-24-29-30-28-25-27-9-11-10-0
0-5-1-2-44-45-53-43-42-32-33-35-34-41-37-38-36-39-40-68-46-49-48-51-50-54-55-0
Cost: 1645
0-4-8-7-9-13-17-18-21-22-23-19-15-16-64-28-29-30-24-25-27-11-10-56-0
0-3-1-2-44-45-53-43-42-32-33-34-35-41-38-36-37-39-40-46-49-48-51-50-54-55-0
